objective value:                           -6471.6672
x2                                                  1 	(obj:-336.607)
x55                                                 1 	(obj:-151.155)
x84                                                 1 	(obj:-374.167)
x105                                                1 	(obj:-676.785)
x138                                                1 	(obj:-34.3521)
x167                                                1 	(obj:-443.668)
x178                                                1 	(obj:-848.269)
x210                                                1 	(obj:-240.92)
x257                                                1 	(obj:-617.259)
x264                                                1 	(obj:-433.125)
x279                                                1 	(obj:-185.081)
x289                                                1 	(obj:-417.478)
x407                                                1 	(obj:-43.9571)
x412                                                1 	(obj:-923.044)
x478                                                1 	(obj:-608.418)
x493                                                1 	(obj:-137.382)
